l=621;
a=5;
setup_costs=[|0,2,3,3,3,
|2,0,0,3,1,
|3,0,0,0,1,
|3,3,0,3,0,
|3,1,1,0,2,
|0,0,0,0,0|];
setup_times=[|0,0,2,1,0,
|0,1,1,1,2,
|2,1,0,1,0,
|1,1,1,0,1,
|0,2,0,1,2,
|0,0,0,0,0|];
m=2;
min_cap=[0,0];
max_cap=[13,13];

initState=[5,3];
s=3;
m_a_s = [|0,0,100,
|360,390,552|];
m_a_e = [|0,0,601,
|371,475,574|];
n=25;
eligible_machine = [{2,1},
{2},
{2},
{1},
{1,2},
{2,1},
{1},
{2,1},
{2,1},
{1,2},
{1},
{2,1},
{2},
{1,2},
{2},
{1},
{2},
{2},
{1,2},
{2},
{2,1},
{2,1},
{2,1},
{2,1},
{2}];
earliest_start=[38,15,13,36,38,41,27,23,0,11,42,30,6,34,8,35,23,12,34,45,18,18,27,22,3];
latest_end=[54,21,18,48,40,49,35,26,36,15,54,37,8,49,17,67,37,14,57,53,19,40,28,24,27];
min_time=[4,2,3,5,1,4,5,1,8,1,3,7,2,5,6,10,3,1,7,2,1,5,1,1,6];
max_time=[10,10,10,10,10,10,10,10,10,10,10,10,10,10,10,10,10,10,10,10,10,10,10,10,10];
size=[4,2,3,3,4,3,4,2,5,2,5,5,1,4,5,5,4,4,3,1,2,2,1,1,5];
attribute=[4,2,1,2,4,1,5,3,5,5,5,4,4,5,3,5,5,4,4,1,4,3,3,5,1];

upper_bound_integer_objective=1500;
mult_factor_total_runtime=6;
mult_factor_finished_toolate=24;
mult_factor_total_setuptimes=0;
mult_factor_total_setupcosts=4;
running_time_bound=94;
min_duration=1;
max_duration=10;
max_setup_time=2;
max_setup_cost=3;
